70
rubrene
C 0.000061 -0.735136 0.000063
C 0.000057 0.735450 0.000063
C -1.244337 -1.423678 0.098412
C -1.244388 1.423808 0.098279
C 1.244450 -1.423688 -0.098175
C 1.244495 1.423810 -0.098044
C -2.426080 -0.720358 0.371044
C -2.426078 0.720510 0.370938
C 2.426302 -0.720356 -0.370322
C 2.426295 0.720503 -0.370216
C -1.411386 -2.865315 -0.276622
C -1.411538 2.865320 -0.276677
C 1.411364 -2.865453 0.276434
C 1.411506 2.865450 0.276491
C -3.678995 -1.392221 0.565059
C -3.679087 1.392206 0.564889
C 3.679287 -1.392218 -0.563893
C 3.679369 1.392209 -0.563720
C -4.834024 -0.709460 0.781258
C -4.834052 0.709378 0.781166
C 4.834406 -0.709451 -0.779599
C 4.834428 0.709385 -0.779504
C -1.609559 -3.881209 0.659274
C -1.506562 3.186145 -1.632807
C -1.506551 -3.186057 -1.632822
C -1.609995 3.881071 0.659225
C 1.609421 -3.881049 -0.659808
C 1.506556 3.186731 1.632511
C 1.506557 -3.186648 1.632522
C 1.609851 3.880895 -0.659761
C -1.873702 -5.182231 0.251720
C -1.774972 4.486027 -2.043395
C -1.774860 -4.485957 -2.043434
C -1.874217 5.182099 0.251775
C 1.873449 -5.182233 -0.252697
C 1.774853 4.486778 2.042656
C 1.774742 -4.486713 2.042692
C 1.873970 5.182082 -0.252756
C -1.957769 -5.490503 -1.101393
C -1.958124 5.490499 -1.101321
C 1.957516 -5.490965 1.100311
C 1.957878 5.490948 1.100236
H -3.698317 -2.469430 0.548280
H -3.698558 2.469361 0.547992
H 3.698593 -2.469427 -0.547167
H 3.698818 2.469365 -0.546873
H -5.758226 -1.248373 0.942149
H -5.758293 1.248236 0.941994
H 5.758673 -1.248361 -0.940123
H 5.758730 1.248248 -0.939963
H -1.548201 -3.651389 1.713915
H -1.376328 2.405256 -2.370609
H -1.376500 -2.405027 -2.370581
H -1.548771 3.651228 1.713812
H 1.548091 -3.650860 -1.714370
H 1.376445 2.406066 2.370573
H 1.376636 -2.405848 2.370544
H 1.548656 3.650678 -1.714268
H -2.014041 -5.956777 0.994013
H -1.846909 4.711004 -3.099471
H -1.846918 -4.710858 -3.099522
H -2.014759 5.956576 0.994101
H 2.013708 -5.956543 -0.995253
H 1.846807 4.712118 3.098653
H 1.846816 -4.711973 3.098702
H 2.014439 5.956320 -0.995346
H -2.166979 -6.503766 -1.417397
H -2.167395 6.503774 -1.417276
H 2.166625 -6.504355 1.415973
H 2.167057 6.504350 1.415843
